$$$$$$$$$$$$$$$$$$$$$$$$$$$$$$$$$$$$$$$$$$$$$$$$$$$$$$$$$$$$$$$$$$$$$$$$$$$$$$
$ Date: 2025-11-23 12:09
$ Components: CR, FE, VA
$ Phases: BCC_A2, FCC_A1, LIQUID
$ Generated by marcu (pycalphad 0.11.1)
$$$$$$$$$$$$$$$$$$$$$$$$$$$$$$$$$$$$$$$$$$$$$$$$$$$$$$$$$$$$$$$$$$$$$$$$$$$$$$

ELEMENT CR BCC_A2 51.996 4050.0 23.56 !
ELEMENT FE BCC_A2 55.847 4489.0 27.28 !
ELEMENT VA VACUUM 0.0 0.0 0.0 !


FUNCTION GBCCCR 298.15 GHSERCR; 6000.0 N !
FUNCTION GBCCFE 298.15 GHSERFE; 6000.0 N !
FUNCTION GFCCCR 298.15 7284+0.163*T+GHSERCR; 6000.0 N !
FUNCTION GFCCFE 298.15 -1462.4+0.00064*T**(2)+8.282*T-1.15*T*LOG(T)+GHSERFE;
   1811.0 Y -1713.815+4.9251E+30*T**(-9)+GHSERFE+0.94001*T; 6000.0 N !
FUNCTION GHSERCR 298.15 -8856.94-1.47721E-06*T**(3)+0.00189435*T**(2)
  +139250*T**(-1)+157.48*T-26.908*T*LOG(T); 2180.0 Y -34869.344
  -2.88526E+32*T**(-9)+344.18*T-50*T*LOG(T); 6000.0 N !
FUNCTION GHSERFE 298.15 1225.7-5.8927E-08*T**(3)-0.00439752*T**(2)
  +77359*T**(-1)+124.134*T-23.5143*T*LOG(T); 1811.0 Y -25383.581
  +2.29603E+31*T**(-9)+299.31255*T-46*T*LOG(T); 6000.0 N !
FUNCTION GHSERVA 1 0; 10000 N !
FUNCTION GLIQCR 298.15 24339.955-11.420225*T+2.37615E-21*T**(7)+GHSERCR;
   2180.0 Y -16459.984-50*T*LOG(T)+335.616316*T; 6000.0 N !
FUNCTION GLIQFE 298.15 12040.17-6.55843*T-3.67516E-21*T**(7)+GHSERFE; 1811.0
   Y -10838.83-46*T*LOG(T)+291.302*T; 6000.0 N !
FUNCTION VV0000 1 -137853.0; 10000 N !

TYPE_DEFINITION % SEQ * !
DEFINE_SYSTEM_DEFAULT ELEMENT 2 !
DEFAULT_COMMAND DEFINE_SYSTEM_ELEMENT VA !

PHASE BCC_A2 %  2 1.0 3.0 !
CONSTITUENT BCC_A2 :CR, FE:VA: !

PHASE FCC_A1 %  2 1.0 1.0 !
CONSTITUENT FCC_A1 :CR, FE:VA: !

PHASE LIQUID %  1 1.0 !
CONSTITUENT LIQUID :CR, FE: !



$$$$$$$$$$$$$$$$$$$$$$$$$$$$$$$$$$$$$$$$$$$$$$$$$$$$$$$$$$$$$$$$$$$$$$$$$$$$$$
$                                     CR                                     $
$$$$$$$$$$$$$$$$$$$$$$$$$$$$$$$$$$$$$$$$$$$$$$$$$$$$$$$$$$$$$$$$$$$$$$$$$$$$$$

PARAMETER G(BCC_A2,CR:VA;0) 1 1.0*GBCCCR; 10000 N !
PARAMETER G(FCC_A1,CR:VA;0) 1 1.0*GFCCCR; 10000 N !
PARAMETER G(LIQUID,CR;0) 1 1.0*GLIQCR; 10000 N !


$$$$$$$$$$$$$$$$$$$$$$$$$$$$$$$$$$$$$$$$$$$$$$$$$$$$$$$$$$$$$$$$$$$$$$$$$$$$$$
$                                     FE                                     $
$$$$$$$$$$$$$$$$$$$$$$$$$$$$$$$$$$$$$$$$$$$$$$$$$$$$$$$$$$$$$$$$$$$$$$$$$$$$$$

PARAMETER G(BCC_A2,FE:VA;0) 1 1.0*GBCCFE; 10000 N !
PARAMETER G(FCC_A1,FE:VA;0) 1 1.0*GFCCFE; 10000 N !
PARAMETER G(LIQUID,FE;0) 1 1.0*GLIQFE; 10000 N !


$$$$$$$$$$$$$$$$$$$$$$$$$$$$$$$$$$$$$$$$$$$$$$$$$$$$$$$$$$$$$$$$$$$$$$$$$$$$$$
$                                   CR-FE                                    $
$$$$$$$$$$$$$$$$$$$$$$$$$$$$$$$$$$$$$$$$$$$$$$$$$$$$$$$$$$$$$$$$$$$$$$$$$$$$$$

PARAMETER L(LIQUID,CR,FE;0) 1 VV0000; 10000 N !
